Instance name : SB_bar-n100-6
Authors : 
Date : 
Reference 
Solution
Route 1 : 20 30 70 41 91 1 34 51 7 23 73 57 84 19 21 71 44 80 36 69 94 86 27 77 
Route 2 : 4 29 37 79 47 97 54 87 48 40 25 90 98 5 17 2 67 3 52 53 55 15 75 33 83 46 65 96 
Route 3 : 12 43 62 42 93 16 66 6 92 8 56 13 26 45 63 76 95 35 14 85 64 58 39 89 
Route 4 : 31 32 81 38 22 82 72 18 88 28 9 68 11 78 49 59 10 61 60 24 50 99 100 74 
